Linear Programming/programs/exemplo-glpk/coloracao/coloring.sol
Problem:    coloring
Rows:       9
Columns:    12 (12 integer, 12 binary)
Non-zeros:  27
Status:     INTEGER OPTIMAL
Objective:  2 (MINimum)

   No.   Row name        Activity     Lower bound   Upper bound
------ ------------    ------------- ------------- -------------
     1 edge1                       0                           0 
     2 edge2                       0                           0 
     3 edge3                       0                           0 
     4 edge4                       0                           0 
     5 edge5                       0                           0 
     6 edge6                       0                           0 
     7 cover7                      1             1             = 
     8 cover8                      1             1             = 
     9 cover9                      1             1             = 

   No. Column name       Activity     Lower bound   Upper bound
------ ------------    ------------- ------------- -------------
     1 y1           *              0             0             1 
     2 y2           *              1             0             1 
     3 y3           *              1             0             1 
     4 x1,1         *              0             0             1 
     5 x2,1         *              0             0             1 
     6 x3,1         *              0             0             1 
     7 x1,2         *              0             0             1 
     8 x2,2         *              1             0             1 
     9 x3,2         *              1             0             1 
    10 x1,3         *              1             0             1 
    11 x2,3         *              0             0             1 
    12 x3,3         *              0             0             1 

Integer feasibility conditions:

KKT.PE: max.abs.err = 0.00e+00 on row 0
        max.rel.err = 0.00e+00 on row 0
        High quality

KKT.PB: max.abs.err = 0.00e+00 on row 0
        max.rel.err = 0.00e+00 on row 0
        High quality

End of output
